unsat
(:SPACER-conj                         2
 :SPACER-inductive-gen                12
 :SPACER-inductive-gen-weaken-fail    14
 :SPACER-inductive-level              7
 :SPACER-max-depth                    8
 :SPACER-max-query-lvl                8
 :SPACER-non-local-gen                13
 :SPACER-num-active-lemmas            11
 :SPACER-num-ctp-blocked              14
 :SPACER-num-invariants               7
 :SPACER-num-is_invariant             54
 :SPACER-num-lemmas                   34
 :SPACER-num-pobs                     7
 :SPACER-num-propagations             27
 :SPACER-num-queries                  14
 :SPACER-subsume-pob                  1
 :SPACER-subsume-success              2
 :added-eqs                           1752
 :arith-assert-diseq                  164
 :arith-assert-lower                  2506
 :arith-assert-upper                  1654
 :arith-bound-prop                    230
 :arith-conflicts                     56
 :arith-eq-adapter                    356
 :arith-fixed-eqs                     272
 :arith-num-rows                      40
 :arith-offset-eqs                    88
 :arith-pivots                        314
 :arith-row-summations                1344
 :arith-tableau-max-columns           80
 :arith-tableau-max-rows              40
 :conflicts                           350
 :decisions                           1348
 :del-clause                          426
 :final-checks                        62
 :iuc_solver.num_proxies              32
 :max-memory                          31.67
 :memory                              31.16
 :minimized-lits                      34
 :mk-bool-var                         1530
 :mk-clause                           1224
 :num-allocs                          16879736
 :num-checks                          274
 :pool_solver.checks                  137
 :pool_solver.checks.sat              31
 :propagations                        8882
 :rlimit-count                        73462
 :time                                0.11
 :time.iuc_solver.get_iuc             0.02
 :time.iuc_solver.get_iuc.hyp_reduce1 0.00
 :time.iuc_solver.get_iuc.hyp_reduce2 0.01
 :time.iuc_solver.get_iuc.learn_core  0.00
 :time.pool_solver.proof              0.00
 :time.pool_solver.smt.total          0.03
 :time.pool_solver.smt.total.sat      0.01
 :time.spacer.init_rules              0.00
 :time.spacer.mbp                     0.00
 :time.spacer.solve                   0.09
 :time.spacer.solve.propagate         0.02
 :time.spacer.solve.reach             0.07
 :time.spacer.solve.reach.children    0.00
 :time.spacer.solve.reach.cluster     0.01
 :time.spacer.solve.reach.gen.global  0.01
 :time.spacer.solve.reach.gen.ind     0.00)
(:max-memory   31.67
 :memory       31.16
 :num-allocs   16879736
 :rlimit-count 73462
 :time         0.11
 :total-time   0.13)
